NAME : 20_2_03.44728.tour
COMMENT : Cost = 0_44728
COMMENT : Found by LKH [Keld Helsgaun] Thu Sep 14 11:07:25 2017
TYPE : TOUR
DIMENSION : 22
TOUR_SECTION
1
3
19
21
20
9
14
2
8
10
12
13
5
18
7
11
6
15
16
17
22
4
-1
EOF
